10
521 886 529  406
577 400 851  441
547 815 468  396
995 555 958  583
596 783 425  594
543 664 543  219
919 644 616  122
842 896 831  481
431 488 732  580
817 694 698  102
10
551 631 593  254 121
496 787 358  270 279
220 2 559  139 134
175 33 647  277 39
641 559 332  187 103
231 329 451  263 27
262 194 489  15 253
257 261 584  185 71
531 646 677  280 2
291 335 262  271 221
